\ SCIP STATISTICS
\   Problem name     : SetCover-100-200
\   Variables        : 200 (200 binary, 0 integer, 0 implicit integer, 0 continuous)
\   Constraints      : 100
Minimize
 Obj: +33 x0 +73 x1 +88 x2 +12 x3 +20 x4 +44 x5 +99 x6 +97 x7 +48 x8 +8 x9 +5 x10 +35 x11 +53 x12 +22 x13
      +39 x14 +54 x15 +32 x16 +14 x17 +81 x18 +59 x19 +1 x20 +74 x21 +8 x22 +44 x23 +54 x24 +12 x25 +87 x26
      +21 x27 +61 x28 +67 x29 +36 x30 +96 x31 +83 x32 +32 x33 +35 x34 +63 x35 +92 x36 +53 x37 +69 x38
      +68 x39 +17 x40 +82 x41 +73 x42 +12 x43 +97 x44 +86 x45 +91 x46 +41 x47 +34 x48 +8 x49 +75 x50 +34 x51
      +38 x52 +96 x53 +99 x54 +44 x55 +80 x56 +93 x57 +66 x58 +33 x59 +89 x60 +16 x61 +14 x62 +16 x63
      +63 x64 +22 x65 +28 x66 +14 x67 +82 x68 +23 x69 +10 x70 +81 x71 +93 x72 +21 x73 +54 x74 +68 x75
      +75 x76 +56 x77 +74 x78 +88 x79 +67 x80 +38 x81 +42 x82 +96 x83 +23 x84 +4 x85 +67 x86 +17 x87 +90 x88
      +86 x89 +13 x90 +74 x91 +8 x92 +24 x93 +53 x94 +9 x95 +18 x96 +59 x97 +56 x98 +22 x99 +89 x100 +78 x101
      +53 x102 +47 x103 +58 x104 +38 x105 +20 x106 +87 x107 +61 x108 +62 x109 +85 x110 +51 x111 +19 x112
      +25 x113 +52 x114 +38 x115 +60 x116 +3 x117 +14 x118 +74 x119 +10 x120 +20 x121 +10 x122 +90 x123
      +84 x124 +89 x125 +68 x126 +5 x127 +81 x128 +55 x129 +47 x130 +34 x131 +96 x132 +32 x133 +3 x134
      +45 x135 +15 x136 +28 x137 +90 x138 +9 x139 +51 x140 +20 x141 +87 x142 +10 x143 +49 x144 +42 x145
      +39 x146 +11 x147 +33 x148 +70 x149 +53 x150 +18 x151 +99 x152 +86 x153 +29 x154 +80 x155 +16 x156
      +49 x157 +48 x158 +91 x159 +77 x160 +42 x161 +38 x162 +29 x163 +36 x164 +2 x165 +13 x166 +22 x167
      +4 x168 +21 x169 +24 x170 +67 x171 +84 x172 +70 x173 +87 x174 +72 x175 +79 x176 +38 x177 +88 x178
      +18 x179 +95 x180 +21 x181 +39 x182 +97 x183 +17 x184 +6 x185 +83 x186 +60 x187 +90 x188 +80 x189
      +73 x190 +3 x191 +25 x192 +30 x193 +56 x194 +20 x195 +86 x196 +62 x197 +83 x198 +89 x199
Subject to
 c0: +1 x3 +1 x10 +1 x18 +1 x20 +1 x23 +1 x31 +1 x40 +1 x51 +1 x62 +1 x75 +1 x76 +1 x91 +1 x96 +1 x97
  +1 x99 +1 x115 +1 x122 +1 x133 +1 x150 +1 x164 +1 x165 +1 x169 +1 x174 +1 x176 +1 x179 +1 x180 +1 x187
  +1 x193 >= +1
 c1: +1 x0 +1 x5 +1 x6 +1 x15 +1 x16 +1 x20 +1 x49 +1 x50 +1 x67 +1 x76 +1 x87 +1 x88 +1 x105 +1 x116
  +1 x118 +1 x120 +1 x129 +1 x131 +1 x135 +1 x139 +1 x140 +1 x150 +1 x155 +1 x171 +1 x174 +1 x183 +1 x186
  +1 x191 +1 x199 >= +1
 c2: +1 x2 +1 x21 +1 x29 +1 x43 +1 x49 +1 x54 +1 x65 +1 x76 +1 x77 +1 x82 +1 x97 +1 x104 +1 x108 +1 x114
  +1 x131 +1 x134 +1 x136 +1 x139 +1 x143 +1 x144 +1 x152 +1 x155 +1 x177 +1 x180 +1 x188 +1 x197 >= +1
 c3: +1 x1 +1 x5 +1 x18 +1 x24 +1 x33 +1 x34 +1 x42 +1 x44 +1 x45 +1 x49 +1 x50 +1 x52 +1 x58 +1 x67 +1 x68
  +1 x89 +1 x98 +1 x101 +1 x106 +1 x116 +1 x119 +1 x121 +1 x128 +1 x129 +1 x138 +1 x141 +1 x147 +1 x155
  +1 x159 +1 x168 +1 x169 +1 x173 +1 x177 +1 x179 +1 x181 +1 x191 >= +1
 c4: +1 x2 +1 x8 +1 x10 +1 x11 +1 x16 +1 x35 +1 x37 +1 x51 +1 x54 +1 x57 +1 x59 +1 x61 +1 x73 +1 x85 +1 x88
  +1 x94 +1 x95 +1 x97 +1 x104 +1 x108 +1 x119 +1 x128 +1 x129 +1 x135 +1 x137 +1 x138 +1 x149 +1 x151
  +1 x159 +1 x189 +1 x198 >= +1
 c5: +1 x3 +1 x9 +1 x16 +1 x17 +1 x18 +1 x21 +1 x26 +1 x32 +1 x34 +1 x45 +1 x46 +1 x47 +1 x50 +1 x59 +1 x63
  +1 x65 +1 x73 +1 x75 +1 x78 +1 x97 +1 x100 +1 x101 +1 x103 +1 x105 +1 x107 +1 x120 +1 x121 +1 x122 +1 x128
  +1 x129 +1 x134 +1 x144 +1 x166 +1 x167 +1 x180 +1 x181 +1 x184 +1 x189 +1 x194 +1 x195 +1 x199 >= +1
 c6: +1 x5 +1 x29 +1 x34 +1 x47 +1 x51 +1 x52 +1 x67 +1 x69 +1 x78 +1 x85 +1 x88 +1 x90 +1 x91 +1 x93
  +1 x100 +1 x109 +1 x112 +1 x129 +1 x153 +1 x157 +1 x172 +1 x176 +1 x188 +1 x189 >= +1
 c7: +1 x1 +1 x10 +1 x16 +1 x19 +1 x24 +1 x29 +1 x33 +1 x38 +1 x42 +1 x53 +1 x60 +1 x69 +1 x73 +1 x78
  +1 x85 +1 x93 +1 x97 +1 x104 +1 x109 +1 x115 +1 x119 +1 x129 +1 x134 +1 x146 +1 x149 +1 x151 +1 x161
  +1 x164 +1 x171 +1 x185 +1 x188 >= +1
 c8: +1 x1 +1 x9 +1 x11 +1 x14 +1 x22 +1 x24 +1 x26 +1 x27 +1 x39 +1 x42 +1 x48 +1 x54 +1 x58 +1 x63 +1 x66
  +1 x68 +1 x71 +1 x72 +1 x74 +1 x84 +1 x92 +1 x93 +1 x101 +1 x104 +1 x106 +1 x108 +1 x115 +1 x119 +1 x124
  +1 x131 +1 x153 +1 x161 +1 x180 >= +1
 c9: +1 x4 +1 x5 +1 x18 +1 x32 +1 x37 +1 x39 +1 x54 +1 x55 +1 x66 +1 x68 +1 x77 +1 x91 +1 x95 +1 x128
  +1 x132 +1 x136 +1 x146 +1 x149 +1 x150 +1 x153 +1 x161 +1 x177 +1 x178 +1 x184 +1 x186 +1 x187 +1 x194
  >= +1
 c10: +1 x3 +1 x16 +1 x26 +1 x27 +1 x32 +1 x33 +1 x34 +1 x44 +1 x47 +1 x63 +1 x74 +1 x84 +1 x91 +1 x94
  +1 x118 +1 x133 +1 x142 +1 x149 +1 x152 +1 x154 +1 x155 +1 x156 +1 x166 +1 x174 +1 x176 +1 x180 +1 x192
  >= +1
 c11: +1 x3 +1 x15 +1 x16 +1 x17 +1 x21 +1 x24 +1 x38 +1 x39 +1 x40 +1 x43 +1 x48 +1 x55 +1 x56 +1 x59
  +1 x67 +1 x77 +1 x79 +1 x88 +1 x90 +1 x93 +1 x95 +1 x101 +1 x108 +1 x109 +1 x111 +1 x121 +1 x133 +1 x138
  +1 x140 +1 x141 +1 x144 +1 x146 +1 x161 +1 x165 +1 x171 +1 x184 +1 x189 +1 x191 >= +1
 c12: +1 x5 +1 x37 +1 x43 +1 x51 +1 x82 +1 x83 +1 x104 +1 x107 +1 x119 +1 x124 +1 x131 +1 x135 +1 x145
  +1 x150 +1 x154 +1 x166 +1 x169 +1 x171 +1 x173 +1 x174 +1 x177 +1 x184 +1 x199 >= +1
 c13: +1 x4 +1 x6 +1 x9 +1 x13 +1 x18 +1 x22 +1 x26 +1 x28 +1 x32 +1 x35 +1 x42 +1 x46 +1 x47 +1 x56 +1 x61
  +1 x65 +1 x72 +1 x76 +1 x80 +1 x99 +1 x108 +1 x115 +1 x117 +1 x123 +1 x126 +1 x140 +1 x142 +1 x146 +1 x156
  +1 x171 +1 x182 +1 x188 +1 x189 >= +1
 c14: +1 x0 +1 x8 +1 x42 +1 x43 +1 x50 +1 x74 +1 x77 +1 x79 +1 x93 +1 x98 +1 x99 +1 x107 +1 x113 +1 x116
  +1 x117 +1 x118 +1 x126 +1 x129 +1 x142 +1 x147 +1 x154 +1 x158 +1 x159 +1 x161 +1 x171 +1 x182 +1 x193
  +1 x199 >= +1
 c15: +1 x1 +1 x18 +1 x27 +1 x44 +1 x45 +1 x50 +1 x51 +1 x53 +1 x56 +1 x75 +1 x83 +1 x84 +1 x97 +1 x113
  +1 x122 +1 x127 +1 x130 +1 x143 +1 x150 +1 x151 +1 x159 +1 x164 +1 x189 +1 x193 +1 x196 +1 x198 >= +1
 c16: +1 x0 +1 x17 +1 x19 +1 x21 +1 x22 +1 x31 +1 x48 +1 x51 +1 x69 +1 x78 +1 x80 +1 x81 +1 x85 +1 x98
  +1 x100 +1 x115 +1 x130 +1 x137 +1 x143 +1 x148 +1 x150 +1 x152 +1 x161 +1 x179 +1 x184 +1 x193 >= +1
 c17: +1 x2 +1 x5 +1 x6 +1 x11 +1 x18 +1 x25 +1 x26 +1 x41 +1 x44 +1 x47 +1 x55 +1 x72 +1 x73 +1 x81 +1 x93
  +1 x96 +1 x100 +1 x101 +1 x104 +1 x109 +1 x111 +1 x117 +1 x119 +1 x128 +1 x129 +1 x134 +1 x138 +1 x144
  +1 x146 +1 x147 +1 x148 +1 x152 +1 x155 +1 x173 +1 x180 +1 x185 +1 x190 +1 x193 >= +1
 c18: +1 x2 +1 x8 +1 x18 +1 x26 +1 x29 +1 x30 +1 x32 +1 x40 +1 x58 +1 x75 +1 x78 +1 x81 +1 x92 +1 x105
  +1 x114 +1 x135 +1 x142 +1 x146 +1 x155 +1 x162 +1 x164 +1 x169 +1 x195 +1 x199 >= +1
 c19: +1 x2 +1 x6 +1 x10 +1 x40 +1 x42 +1 x51 +1 x56 +1 x60 +1 x61 +1 x63 +1 x64 +1 x65 +1 x75 +1 x80
  +1 x82 +1 x88 +1 x95 +1 x99 +1 x104 +1 x123 +1 x143 +1 x153 +1 x155 +1 x159 +1 x162 +1 x166 +1 x173
  +1 x184 +1 x194 >= +1
 c20: +1 x0 +1 x16 +1 x22 +1 x37 +1 x52 +1 x59 +1 x65 +1 x66 +1 x72 +1 x78 +1 x83 +1 x95 +1 x102 +1 x106
  +1 x112 +1 x113 +1 x116 +1 x118 +1 x124 +1 x136 +1 x140 +1 x149 +1 x157 +1 x165 +1 x167 +1 x175 +1 x178
  +1 x184 +1 x192 +1 x196 +1 x199 >= +1
 c21: +1 x3 +1 x13 +1 x17 +1 x46 +1 x58 +1 x59 +1 x72 +1 x83 +1 x92 +1 x95 +1 x96 +1 x98 +1 x109 +1 x128
  +1 x146 +1 x153 +1 x154 +1 x156 +1 x162 +1 x164 +1 x171 +1 x178 +1 x185 +1 x187 >= +1
 c22: +1 x1 +1 x10 +1 x11 +1 x25 +1 x33 +1 x41 +1 x48 +1 x61 +1 x77 +1 x79 +1 x90 +1 x96 +1 x100 +1 x106
  +1 x109 +1 x110 +1 x112 +1 x120 +1 x122 +1 x135 +1 x136 +1 x145 +1 x157 +1 x159 +1 x162 +1 x170 +1 x192
  +1 x196 >= +1
 c23: +1 x2 +1 x7 +1 x20 +1 x23 +1 x24 +1 x33 +1 x36 +1 x41 +1 x44 +1 x49 +1 x54 +1 x63 +1 x64 +1 x96
  +1 x98 +1 x106 +1 x123 +1 x124 +1 x131 +1 x135 +1 x137 +1 x171 +1 x179 +1 x182 +1 x186 +1 x188 +1 x195
  >= +1
 c24: +1 x3 +1 x8 +1 x9 +1 x11 +1 x22 +1 x35 +1 x43 +1 x46 +1 x48 +1 x66 +1 x67 +1 x73 +1 x79 +1 x85 +1 x91
  +1 x102 +1 x109 +1 x114 +1 x131 +1 x134 +1 x137 +1 x138 +1 x148 +1 x150 +1 x155 +1 x161 +1 x167 +1 x170
  +1 x178 +1 x187 +1 x188 +1 x192 >= +1
 c25: +1 x1 +1 x5 +1 x7 +1 x11 +1 x18 +1 x29 +1 x30 +1 x38 +1 x43 +1 x48 +1 x59 +1 x60 +1 x70 +1 x73 +1 x79
  +1 x87 +1 x92 +1 x103 +1 x110 +1 x112 +1 x117 +1 x120 +1 x127 +1 x132 +1 x138 +1 x140 +1 x156 +1 x165
  +1 x167 +1 x169 +1 x170 +1 x171 +1 x183 +1 x191 +1 x196 >= +1
 c26: +1 x0 +1 x10 +1 x17 +1 x20 +1 x21 +1 x23 +1 x28 +1 x46 +1 x56 +1 x66 +1 x75 +1 x80 +1 x81 +1 x109
  +1 x115 +1 x118 +1 x137 +1 x144 +1 x146 +1 x148 +1 x154 +1 x164 +1 x185 +1 x189 +1 x191 +1 x194 +1 x196
  >= +1
 c27: +1 x1 +1 x5 +1 x11 +1 x16 +1 x19 +1 x24 +1 x34 +1 x37 +1 x39 +1 x47 +1 x48 +1 x66 +1 x84 +1 x91
  +1 x93 +1 x97 +1 x102 +1 x109 +1 x110 +1 x111 +1 x112 +1 x114 +1 x140 +1 x142 +1 x145 +1 x160 +1 x161
  +1 x173 +1 x177 +1 x182 +1 x185 +1 x187 +1 x194 >= +1
 c28: +1 x2 +1 x12 +1 x19 +1 x22 +1 x29 +1 x30 +1 x31 +1 x47 +1 x53 +1 x68 +1 x71 +1 x73 +1 x79 +1 x97
  +1 x104 +1 x107 +1 x108 +1 x112 +1 x113 +1 x120 +1 x130 +1 x135 +1 x139 +1 x162 +1 x180 +1 x196 >= +1
 c29: +1 x0 +1 x6 +1 x17 +1 x26 +1 x29 +1 x36 +1 x42 +1 x44 +1 x49 +1 x60 +1 x61 +1 x62 +1 x64 +1 x73
  +1 x77 +1 x81 +1 x83 +1 x84 +1 x86 +1 x88 +1 x94 +1 x98 +1 x99 +1 x101 +1 x118 +1 x121 +1 x125 +1 x135
  +1 x138 +1 x140 +1 x191 +1 x193 +1 x194 >= +1
 c30: +1 x3 +1 x10 +1 x17 +1 x22 +1 x23 +1 x24 +1 x30 +1 x33 +1 x38 +1 x43 +1 x44 +1 x48 +1 x49 +1 x50
  +1 x53 +1 x57 +1 x64 +1 x67 +1 x69 +1 x74 +1 x75 +1 x87 +1 x91 +1 x94 +1 x96 +1 x98 +1 x101 +1 x102
  +1 x114 +1 x117 +1 x119 +1 x126 +1 x141 +1 x144 +1 x154 +1 x161 +1 x174 +1 x182 +1 x190 +1 x193 +1 x195
  +1 x198 +1 x199 >= +1
 c31: +1 x4 +1 x6 +1 x11 +1 x14 +1 x16 +1 x42 +1 x48 +1 x56 +1 x59 +1 x65 +1 x75 +1 x82 +1 x93 +1 x101
  +1 x114 +1 x119 +1 x125 +1 x126 +1 x141 +1 x157 +1 x163 +1 x167 +1 x170 +1 x182 +1 x186 +1 x192 +1 x195
  +1 x196 >= +1
 c32: +1 x3 +1 x10 +1 x23 +1 x41 +1 x49 +1 x64 +1 x66 +1 x80 +1 x116 +1 x119 +1 x121 +1 x122 +1 x123 +1 x126
  +1 x128 +1 x129 +1 x131 +1 x133 +1 x147 +1 x151 +1 x157 +1 x161 +1 x167 +1 x175 +1 x178 +1 x184 +1 x191
  +1 x197 >= +1
 c33: +1 x2 +1 x13 +1 x14 +1 x17 +1 x20 +1 x21 +1 x28 +1 x37 +1 x38 +1 x52 +1 x61 +1 x66 +1 x74 +1 x81
  +1 x87 +1 x97 +1 x100 +1 x122 +1 x126 +1 x142 +1 x158 +1 x174 +1 x176 +1 x186 +1 x189 +1 x196 +1 x198
  >= +1
 c34: +1 x3 +1 x19 +1 x21 +1 x24 +1 x39 +1 x41 +1 x57 +1 x60 +1 x67 +1 x99 +1 x104 +1 x111 +1 x125 +1 x136
  +1 x142 +1 x163 +1 x167 +1 x173 +1 x184 +1 x185 +1 x198 >= +1
 c35: +1 x0 +1 x39 +1 x43 +1 x44 +1 x52 +1 x67 +1 x74 +1 x75 +1 x80 +1 x91 +1 x94 +1 x98 +1 x110 +1 x113
  +1 x127 +1 x130 +1 x133 +1 x135 +1 x151 +1 x159 +1 x161 +1 x164 +1 x167 +1 x174 +1 x183 +1 x189 +1 x190
  +1 x194 >= +1
 c36: +1 x5 +1 x6 +1 x12 +1 x27 +1 x28 +1 x47 +1 x48 +1 x68 +1 x72 +1 x84 +1 x91 +1 x92 +1 x97 +1 x115
  +1 x118 +1 x123 +1 x129 +1 x143 +1 x145 +1 x150 +1 x151 +1 x154 +1 x163 +1 x164 +1 x165 +1 x172 +1 x187
  +1 x188 >= +1
 c37: +1 x1 +1 x14 +1 x27 +1 x32 +1 x48 +1 x49 +1 x51 +1 x55 +1 x62 +1 x65 +1 x69 +1 x70 +1 x76 +1 x78
  +1 x82 +1 x86 +1 x92 +1 x93 +1 x102 +1 x103 +1 x112 +1 x124 +1 x129 +1 x137 +1 x138 +1 x142 +1 x158
  +1 x159 +1 x183 +1 x188 +1 x191 +1 x192 >= +1
 c38: +1 x5 +1 x7 +1 x16 +1 x37 +1 x38 +1 x39 +1 x41 +1 x43 +1 x45 +1 x59 +1 x64 +1 x65 +1 x71 +1 x73
  +1 x78 +1 x80 +1 x81 +1 x96 +1 x104 +1 x108 +1 x110 +1 x114 +1 x115 +1 x128 +1 x130 +1 x132 +1 x135
  +1 x150 +1 x156 +1 x193 +1 x197 >= +1
 c39: +1 x4 +1 x11 +1 x26 +1 x37 +1 x60 +1 x65 +1 x68 +1 x90 +1 x91 +1 x92 +1 x93 +1 x103 +1 x106 +1 x110
  +1 x118 +1 x125 +1 x128 +1 x140 +1 x150 +1 x160 +1 x169 +1 x176 +1 x182 +1 x187 >= +1
 c40: +1 x2 +1 x5 +1 x10 +1 x12 +1 x14 +1 x20 +1 x25 +1 x30 +1 x43 +1 x48 +1 x50 +1 x53 +1 x61 +1 x93
  +1 x94 +1 x96 +1 x100 +1 x101 +1 x102 +1 x103 +1 x104 +1 x110 +1 x111 +1 x113 +1 x118 +1 x120 +1 x121
  +1 x132 +1 x133 +1 x136 +1 x137 +1 x139 +1 x160 +1 x170 +1 x174 +1 x176 +1 x188 +1 x195 +1 x198 >= +1
 c41: +1 x3 +1 x9 +1 x17 +1 x21 +1 x51 +1 x53 +1 x68 +1 x72 +1 x79 +1 x81 +1 x93 +1 x100 +1 x116 +1 x128
  +1 x129 +1 x131 +1 x134 +1 x146 +1 x152 +1 x153 +1 x166 +1 x177 +1 x178 +1 x179 +1 x182 +1 x196 >= +1
 c42: +1 x0 +1 x10 +1 x20 +1 x22 +1 x45 +1 x50 +1 x56 +1 x69 +1 x89 +1 x95 +1 x107 +1 x113 +1 x117 +1 x130
  +1 x133 +1 x139 +1 x148 +1 x150 +1 x155 +1 x161 +1 x168 +1 x176 +1 x178 +1 x179 +1 x182 +1 x195 >= +1
 c43: +1 x2 +1 x6 +1 x15 +1 x17 +1 x25 +1 x30 +1 x38 +1 x41 +1 x45 +1 x49 +1 x62 +1 x73 +1 x91 +1 x92
  +1 x97 +1 x99 +1 x107 +1 x108 +1 x110 +1 x113 +1 x127 +1 x129 +1 x138 +1 x140 +1 x144 +1 x147 +1 x148
  +1 x157 +1 x158 +1 x163 +1 x170 +1 x186 +1 x193 >= +1
 c44: +1 x1 +1 x8 +1 x9 +1 x10 +1 x19 +1 x28 +1 x31 +1 x44 +1 x48 +1 x53 +1 x54 +1 x64 +1 x65 +1 x76 +1 x90
  +1 x96 +1 x107 +1 x113 +1 x123 +1 x126 +1 x129 +1 x142 +1 x160 +1 x164 +1 x169 +1 x172 +1 x175 +1 x180
  +1 x187 +1 x189 +1 x190 +1 x192 +1 x197 >= +1
 c45: +1 x0 +1 x9 +1 x10 +1 x26 +1 x29 +1 x30 +1 x39 +1 x41 +1 x43 +1 x47 +1 x52 +1 x57 +1 x60 +1 x61
  +1 x66 +1 x74 +1 x91 +1 x92 +1 x96 +1 x113 +1 x120 +1 x125 +1 x126 +1 x135 +1 x137 +1 x147 +1 x148 +1 x154
  +1 x160 +1 x162 +1 x164 +1 x172 +1 x177 +1 x179 +1 x183 +1 x187 +1 x190 +1 x193 >= +1
 c46: +1 x1 +1 x14 +1 x26 +1 x28 +1 x35 +1 x50 +1 x61 +1 x67 +1 x69 +1 x76 +1 x89 +1 x92 +1 x94 +1 x104
  +1 x116 +1 x118 +1 x119 +1 x135 +1 x139 +1 x144 +1 x162 +1 x182 +1 x185 +1 x186 +1 x190 +1 x191 +1 x194
  +1 x196 +1 x197 >= +1
 c47: +1 x2 +1 x6 +1 x9 +1 x13 +1 x19 +1 x47 +1 x54 +1 x61 +1 x65 +1 x68 +1 x85 +1 x93 +1 x98 +1 x104
  +1 x116 +1 x127 +1 x137 +1 x139 +1 x144 +1 x150 +1 x156 +1 x172 +1 x175 +1 x178 +1 x179 +1 x183 +1 x184
  +1 x199 >= +1
 c48: +1 x4 +1 x5 +1 x7 +1 x16 +1 x37 +1 x41 +1 x54 +1 x58 +1 x67 +1 x69 +1 x70 +1 x91 +1 x93 +1 x97 +1 x102
  +1 x108 +1 x111 +1 x112 +1 x121 +1 x128 +1 x138 +1 x148 +1 x151 +1 x154 +1 x163 +1 x165 +1 x166 +1 x168
  +1 x180 +1 x184 +1 x190 +1 x191 +1 x197 +1 x198 +1 x199 >= +1
 c49: +1 x3 +1 x11 +1 x12 +1 x22 +1 x23 +1 x24 +1 x27 +1 x34 +1 x37 +1 x42 +1 x48 +1 x56 +1 x59 +1 x61
  +1 x62 +1 x65 +1 x67 +1 x70 +1 x73 +1 x78 +1 x84 +1 x87 +1 x90 +1 x94 +1 x101 +1 x118 +1 x120 +1 x131
  +1 x142 +1 x144 +1 x145 +1 x155 +1 x157 +1 x158 +1 x170 +1 x173 +1 x180 +1 x185 +1 x199 >= +1
 c50: +1 x1 +1 x16 +1 x19 +1 x21 +1 x25 +1 x31 +1 x60 +1 x63 +1 x71 +1 x74 +1 x76 +1 x82 +1 x91 +1 x92
  +1 x107 +1 x110 +1 x112 +1 x147 +1 x148 +1 x155 +1 x159 +1 x161 +1 x169 +1 x179 +1 x181 +1 x182 +1 x184
  +1 x186 +1 x190 +1 x191 >= +1
 c51: +1 x4 +1 x12 +1 x14 +1 x28 +1 x34 +1 x36 +1 x48 +1 x50 +1 x52 +1 x67 +1 x75 +1 x80 +1 x83 +1 x90
  +1 x93 +1 x94 +1 x102 +1 x103 +1 x111 +1 x118 +1 x131 +1 x132 +1 x134 +1 x137 +1 x139 +1 x158 +1 x161
  +1 x164 +1 x170 +1 x177 +1 x184 +1 x191 +1 x196 >= +1
 c52: +1 x0 +1 x8 +1 x13 +1 x16 +1 x19 +1 x22 +1 x23 +1 x24 +1 x26 +1 x42 +1 x55 +1 x57 +1 x65 +1 x68
  +1 x71 +1 x73 +1 x76 +1 x80 +1 x92 +1 x99 +1 x121 +1 x127 +1 x128 +1 x130 +1 x138 +1 x152 +1 x159 +1 x171
  +1 x172 +1 x176 +1 x180 +1 x197 >= +1
 c53: +1 x5 +1 x9 +1 x10 +1 x22 +1 x23 +1 x24 +1 x25 +1 x28 +1 x31 +1 x39 +1 x42 +1 x43 +1 x52 +1 x55
  +1 x60 +1 x61 +1 x78 +1 x80 +1 x83 +1 x86 +1 x88 +1 x93 +1 x108 +1 x131 +1 x132 +1 x137 +1 x142 +1 x144
  +1 x147 +1 x153 +1 x154 +1 x160 +1 x167 +1 x174 +1 x184 +1 x199 >= +1
 c54: +1 x2 +1 x11 +1 x14 +1 x24 +1 x25 +1 x26 +1 x34 +1 x44 +1 x56 +1 x62 +1 x64 +1 x67 +1 x74 +1 x84
  +1 x88 +1 x95 +1 x100 +1 x104 +1 x108 +1 x109 +1 x116 +1 x134 +1 x136 +1 x141 +1 x144 +1 x155 +1 x164
  +1 x168 +1 x171 +1 x181 >= +1
 c55: +1 x0 +1 x11 +1 x14 +1 x22 +1 x27 +1 x37 +1 x38 +1 x44 +1 x50 +1 x54 +1 x59 +1 x60 +1 x63 +1 x82
  +1 x83 +1 x90 +1 x96 +1 x99 +1 x106 +1 x112 +1 x114 +1 x140 +1 x141 +1 x144 +1 x147 +1 x154 +1 x155
  +1 x169 +1 x183 +1 x191 >= +1
 c56: +1 x0 +1 x9 +1 x10 +1 x11 +1 x14 +1 x18 +1 x31 +1 x32 +1 x34 +1 x38 +1 x54 +1 x55 +1 x59 +1 x69
  +1 x70 +1 x80 +1 x88 +1 x93 +1 x96 +1 x104 +1 x107 +1 x124 +1 x125 +1 x128 +1 x146 +1 x159 +1 x163 +1 x168
  +1 x171 +1 x189 +1 x194 +1 x199 >= +1
 c57: +1 x2 +1 x11 +1 x23 +1 x27 +1 x30 +1 x36 +1 x49 +1 x59 +1 x63 +1 x70 +1 x71 +1 x76 +1 x85 +1 x87
  +1 x95 +1 x98 +1 x105 +1 x106 +1 x108 +1 x109 +1 x114 +1 x118 +1 x121 +1 x133 +1 x136 +1 x138 +1 x139
  +1 x141 +1 x147 +1 x148 +1 x149 +1 x156 +1 x157 +1 x159 +1 x162 +1 x163 +1 x165 +1 x169 +1 x171 +1 x175
  +1 x187 +1 x190 >= +1
 c58: +1 x2 +1 x20 +1 x40 +1 x47 +1 x57 +1 x60 +1 x75 +1 x83 +1 x86 +1 x88 +1 x90 +1 x109 +1 x112 +1 x127
  +1 x149 +1 x155 +1 x166 +1 x168 +1 x173 +1 x182 +1 x194 +1 x195 +1 x198 >= +1
 c59: +1 x4 +1 x13 +1 x17 +1 x38 +1 x42 +1 x49 +1 x51 +1 x56 +1 x57 +1 x69 +1 x71 +1 x84 +1 x95 +1 x98
  +1 x106 +1 x122 +1 x130 +1 x136 +1 x152 +1 x155 +1 x158 +1 x161 +1 x162 +1 x168 +1 x179 +1 x184 +1 x189
  +1 x193 +1 x195 >= +1
 c60: +1 x5 +1 x12 +1 x24 +1 x28 +1 x40 +1 x48 +1 x56 +1 x81 +1 x83 +1 x85 +1 x86 +1 x90 +1 x91 +1 x100
  +1 x103 +1 x109 +1 x111 +1 x116 +1 x124 +1 x128 +1 x136 +1 x140 +1 x154 +1 x161 +1 x162 +1 x167 +1 x169
  >= +1
 c61: +1 x3 +1 x11 +1 x18 +1 x21 +1 x28 +1 x31 +1 x34 +1 x37 +1 x40 +1 x42 +1 x59 +1 x72 +1 x76 +1 x78
  +1 x91 +1 x94 +1 x97 +1 x115 +1 x116 +1 x117 +1 x139 +1 x150 +1 x154 +1 x160 +1 x169 +1 x175 +1 x177
  +1 x180 +1 x182 +1 x189 +1 x195 +1 x199 >= +1
 c62: +1 x0 +1 x7 +1 x9 +1 x11 +1 x22 +1 x57 +1 x60 +1 x62 +1 x65 +1 x71 +1 x75 +1 x94 +1 x95 +1 x96 +1 x101
  +1 x104 +1 x112 +1 x118 +1 x139 +1 x154 +1 x155 +1 x168 +1 x171 +1 x175 +1 x188 +1 x194 >= +1
 c63: +1 x1 +1 x18 +1 x23 +1 x29 +1 x32 +1 x41 +1 x42 +1 x49 +1 x52 +1 x59 +1 x76 +1 x87 +1 x89 +1 x92
  +1 x96 +1 x102 +1 x111 +1 x118 +1 x123 +1 x126 +1 x128 +1 x135 +1 x150 +1 x154 +1 x165 +1 x187 +1 x194
  +1 x197 >= +1
 c64: +1 x0 +1 x12 +1 x18 +1 x22 +1 x26 +1 x27 +1 x34 +1 x36 +1 x39 +1 x42 +1 x45 +1 x52 +1 x55 +1 x57
  +1 x66 +1 x72 +1 x75 +1 x85 +1 x101 +1 x107 +1 x109 +1 x113 +1 x118 +1 x119 +1 x125 +1 x146 +1 x157
  +1 x159 +1 x162 +1 x177 +1 x181 >= +1
 c65: +1 x2 +1 x23 +1 x25 +1 x28 +1 x37 +1 x38 +1 x39 +1 x40 +1 x42 +1 x50 +1 x68 +1 x86 +1 x110 +1 x116
  +1 x142 +1 x144 +1 x148 +1 x157 +1 x172 +1 x186 +1 x197 >= +1
 c66: +1 x5 +1 x6 +1 x9 +1 x19 +1 x28 +1 x44 +1 x55 +1 x64 +1 x81 +1 x84 +1 x93 +1 x99 +1 x110 +1 x118
  +1 x121 +1 x122 +1 x129 +1 x131 +1 x135 +1 x148 +1 x151 +1 x152 +1 x173 +1 x178 +1 x182 +1 x187 +1 x189
  +1 x198 >= +1
 c67: +1 x0 +1 x10 +1 x23 +1 x34 +1 x36 +1 x39 +1 x40 +1 x46 +1 x53 +1 x69 +1 x80 +1 x83 +1 x86 +1 x94
  +1 x96 +1 x98 +1 x99 +1 x102 +1 x122 +1 x124 +1 x126 +1 x128 +1 x146 +1 x152 +1 x159 +1 x160 +1 x161
  +1 x165 +1 x167 +1 x177 +1 x187 >= +1
 c68: +1 x2 +1 x28 +1 x35 +1 x42 +1 x43 +1 x51 +1 x55 +1 x71 +1 x78 +1 x80 +1 x81 +1 x85 +1 x86 +1 x91
  +1 x103 +1 x130 +1 x149 +1 x162 +1 x168 +1 x176 +1 x177 +1 x180 +1 x185 +1 x188 +1 x191 +1 x193 +1 x195
  +1 x196 +1 x199 >= +1
 c69: +1 x2 +1 x12 +1 x15 +1 x20 +1 x21 +1 x22 +1 x24 +1 x30 +1 x34 +1 x38 +1 x48 +1 x49 +1 x60 +1 x61
  +1 x86 +1 x90 +1 x93 +1 x99 +1 x100 +1 x105 +1 x116 +1 x120 +1 x122 +1 x124 +1 x137 +1 x138 +1 x142
  +1 x152 +1 x153 +1 x156 +1 x161 +1 x163 +1 x172 +1 x184 +1 x185 +1 x193 +1 x197 >= +1
 c70: +1 x4 +1 x15 +1 x16 +1 x25 +1 x26 +1 x27 +1 x41 +1 x59 +1 x65 +1 x68 +1 x70 +1 x71 +1 x80 +1 x85
  +1 x92 +1 x97 +1 x122 +1 x124 +1 x126 +1 x129 +1 x131 +1 x133 +1 x149 +1 x153 +1 x158 +1 x163 +1 x171
  +1 x173 +1 x177 +1 x180 +1 x188 +1 x192 >= +1
 c71: +1 x1 +1 x16 +1 x18 +1 x24 +1 x53 +1 x54 +1 x60 +1 x63 +1 x65 +1 x69 +1 x75 +1 x85 +1 x90 +1 x91
  +1 x114 +1 x117 +1 x122 +1 x128 +1 x129 +1 x132 +1 x133 +1 x143 +1 x146 +1 x155 +1 x164 +1 x169 +1 x175
  +1 x183 +1 x194 +1 x196 >= +1
 c72: +1 x3 +1 x16 +1 x17 +1 x29 +1 x33 +1 x35 +1 x45 +1 x50 +1 x62 +1 x66 +1 x71 +1 x75 +1 x86 +1 x104
  +1 x105 +1 x122 +1 x125 +1 x126 +1 x156 +1 x160 +1 x167 +1 x182 +1 x194 >= +1
 c73: +1 x1 +1 x19 +1 x25 +1 x30 +1 x31 +1 x33 +1 x34 +1 x40 +1 x44 +1 x65 +1 x66 +1 x72 +1 x76 +1 x80
  +1 x82 +1 x83 +1 x84 +1 x89 +1 x90 +1 x103 +1 x104 +1 x116 +1 x122 +1 x124 +1 x131 +1 x133 +1 x134 +1 x138
  +1 x153 +1 x159 +1 x161 +1 x169 +1 x180 +1 x194 +1 x197 >= +1
 c74: +1 x0 +1 x5 +1 x14 +1 x15 +1 x17 +1 x20 +1 x23 +1 x25 +1 x28 +1 x45 +1 x58 +1 x63 +1 x64 +1 x68
  +1 x75 +1 x89 +1 x93 +1 x129 +1 x135 +1 x139 +1 x143 +1 x145 +1 x146 +1 x149 +1 x151 +1 x152 +1 x154
  +1 x157 +1 x164 +1 x166 +1 x179 +1 x189 +1 x194 >= +1
 c75: +1 x4 +1 x14 +1 x15 +1 x17 +1 x25 +1 x26 +1 x58 +1 x66 +1 x71 +1 x76 +1 x83 +1 x84 +1 x93 +1 x98
  +1 x99 +1 x112 +1 x114 +1 x116 +1 x121 +1 x127 +1 x128 +1 x133 +1 x134 +1 x143 +1 x145 +1 x147 +1 x149
  +1 x177 +1 x181 +1 x193 >= +1
 c76: +1 x4 +1 x13 +1 x19 +1 x24 +1 x32 +1 x39 +1 x41 +1 x52 +1 x53 +1 x63 +1 x65 +1 x82 +1 x89 +1 x92
  +1 x93 +1 x107 +1 x114 +1 x122 +1 x123 +1 x130 +1 x134 +1 x146 +1 x166 +1 x168 +1 x172 +1 x188 +1 x196
  >= +1
 c77: +1 x2 +1 x6 +1 x15 +1 x18 +1 x23 +1 x26 +1 x29 +1 x39 +1 x41 +1 x44 +1 x49 +1 x52 +1 x67 +1 x73
  +1 x77 +1 x91 +1 x99 +1 x100 +1 x104 +1 x111 +1 x138 +1 x142 +1 x146 +1 x151 +1 x153 +1 x155 +1 x170
  +1 x186 >= +1
 c78: +1 x1 +1 x15 +1 x21 +1 x25 +1 x27 +1 x32 +1 x38 +1 x59 +1 x70 +1 x72 +1 x76 +1 x95 +1 x96 +1 x98
  +1 x102 +1 x104 +1 x112 +1 x122 +1 x124 +1 x130 +1 x131 +1 x137 +1 x139 +1 x140 +1 x141 +1 x143 +1 x145
  +1 x153 +1 x157 +1 x166 +1 x167 +1 x172 +1 x179 +1 x184 +1 x192 >= +1
 c79: +1 x2 +1 x8 +1 x10 +1 x43 +1 x48 +1 x54 +1 x67 +1 x68 +1 x79 +1 x81 +1 x82 +1 x85 +1 x88 +1 x89
  +1 x106 +1 x107 +1 x108 +1 x112 +1 x114 +1 x118 +1 x129 +1 x132 +1 x135 +1 x140 +1 x144 +1 x147 +1 x151
  +1 x158 +1 x162 +1 x165 +1 x166 +1 x167 +1 x169 +1 x193 >= +1
 c80: +1 x4 +1 x8 +1 x9 +1 x26 +1 x31 +1 x52 +1 x60 +1 x66 +1 x76 +1 x77 +1 x82 +1 x96 +1 x114 +1 x123
  +1 x125 +1 x131 +1 x142 +1 x150 +1 x153 +1 x162 +1 x164 +1 x178 +1 x186 +1 x189 +1 x196 >= +1
 c81: +1 x4 +1 x47 +1 x49 +1 x53 +1 x58 +1 x77 +1 x80 +1 x84 +1 x96 +1 x99 +1 x105 +1 x107 +1 x110 +1 x114
  +1 x123 +1 x127 +1 x132 +1 x141 +1 x150 +1 x153 +1 x157 +1 x160 +1 x161 +1 x162 +1 x167 +1 x186 +1 x193
  +1 x198 >= +1
 c82: +1 x1 +1 x10 +1 x12 +1 x28 +1 x34 +1 x38 +1 x50 +1 x52 +1 x56 +1 x80 +1 x87 +1 x88 +1 x91 +1 x98
  +1 x102 +1 x105 +1 x110 +1 x116 +1 x117 +1 x130 +1 x136 +1 x145 +1 x147 +1 x152 +1 x154 +1 x157 +1 x160
  +1 x161 +1 x166 +1 x168 +1 x172 +1 x176 +1 x178 >= +1
 c83: +1 x1 +1 x12 +1 x14 +1 x18 +1 x19 +1 x24 +1 x25 +1 x29 +1 x41 +1 x42 +1 x47 +1 x56 +1 x61 +1 x66
  +1 x68 +1 x74 +1 x81 +1 x83 +1 x96 +1 x102 +1 x109 +1 x113 +1 x121 +1 x123 +1 x126 +1 x142 +1 x145 +1 x172
  +1 x174 +1 x178 +1 x179 +1 x183 +1 x184 +1 x186 +1 x192 +1 x197 >= +1
 c84: +1 x5 +1 x21 +1 x23 +1 x24 +1 x37 +1 x39 +1 x40 +1 x52 +1 x59 +1 x77 +1 x83 +1 x89 +1 x95 +1 x99
  +1 x105 +1 x107 +1 x157 +1 x160 +1 x167 +1 x175 +1 x183 +1 x186 >= +1
 c85: +1 x1 +1 x9 +1 x18 +1 x20 +1 x27 +1 x35 +1 x54 +1 x59 +1 x64 +1 x80 +1 x81 +1 x90 +1 x94 +1 x102
  +1 x103 +1 x104 +1 x107 +1 x109 +1 x110 +1 x117 +1 x139 +1 x145 +1 x159 +1 x160 +1 x166 +1 x167 +1 x170
  >= +1
 c86: +1 x1 +1 x6 +1 x8 +1 x9 +1 x12 +1 x16 +1 x18 +1 x21 +1 x24 +1 x36 +1 x37 +1 x38 +1 x46 +1 x49 +1 x62
  +1 x64 +1 x66 +1 x68 +1 x71 +1 x81 +1 x89 +1 x99 +1 x104 +1 x105 +1 x107 +1 x119 +1 x133 +1 x149 +1 x152
  +1 x160 +1 x172 +1 x191 +1 x192 +1 x194 >= +1
 c87: +1 x4 +1 x10 +1 x11 +1 x18 +1 x26 +1 x30 +1 x32 +1 x34 +1 x39 +1 x40 +1 x45 +1 x49 +1 x53 +1 x56
  +1 x68 +1 x71 +1 x72 +1 x82 +1 x100 +1 x110 +1 x124 +1 x128 +1 x145 +1 x162 +1 x173 +1 x184 +1 x193
  +1 x195 +1 x199 >= +1
 c88: +1 x3 +1 x8 +1 x10 +1 x16 +1 x19 +1 x22 +1 x25 +1 x26 +1 x28 +1 x30 +1 x44 +1 x51 +1 x56 +1 x62
  +1 x69 +1 x80 +1 x81 +1 x94 +1 x112 +1 x118 +1 x129 +1 x133 +1 x182 +1 x183 >= +1
 c89: +1 x5 +1 x14 +1 x19 +1 x39 +1 x41 +1 x42 +1 x50 +1 x52 +1 x53 +1 x56 +1 x58 +1 x64 +1 x70 +1 x71
  +1 x75 +1 x76 +1 x78 +1 x79 +1 x106 +1 x112 +1 x128 +1 x133 +1 x136 +1 x167 +1 x171 +1 x172 +1 x173
  +1 x180 +1 x183 >= +1
 c90: +1 x5 +1 x7 +1 x9 +1 x13 +1 x20 +1 x23 +1 x25 +1 x26 +1 x42 +1 x43 +1 x54 +1 x55 +1 x59 +1 x64 +1 x73
  +1 x75 +1 x80 +1 x84 +1 x85 +1 x93 +1 x96 +1 x97 +1 x104 +1 x109 +1 x114 +1 x124 +1 x130 +1 x134 +1 x137
  +1 x171 +1 x187 +1 x188 +1 x199 >= +1
 c91: +1 x1 +1 x5 +1 x16 +1 x20 +1 x29 +1 x40 +1 x42 +1 x44 +1 x49 +1 x52 +1 x61 +1 x64 +1 x78 +1 x81
  +1 x101 +1 x110 +1 x120 +1 x124 +1 x127 +1 x137 +1 x154 +1 x156 +1 x161 +1 x171 +1 x178 +1 x185 +1 x193
  +1 x194 >= +1
 c92: +1 x5 +1 x8 +1 x12 +1 x21 +1 x24 +1 x30 +1 x46 +1 x51 +1 x55 +1 x58 +1 x62 +1 x80 +1 x86 +1 x88
  +1 x111 +1 x113 +1 x117 +1 x127 +1 x131 +1 x160 +1 x167 +1 x181 +1 x185 +1 x187 +1 x189 >= +1
 c93: +1 x3 +1 x6 +1 x9 +1 x13 +1 x14 +1 x15 +1 x23 +1 x32 +1 x41 +1 x43 +1 x50 +1 x54 +1 x56 +1 x62 +1 x63
  +1 x78 +1 x98 +1 x108 +1 x112 +1 x125 +1 x134 +1 x137 +1 x148 +1 x169 +1 x174 +1 x176 >= +1
 c94: +1 x4 +1 x6 +1 x22 +1 x27 +1 x33 +1 x43 +1 x46 +1 x48 +1 x51 +1 x61 +1 x62 +1 x72 +1 x76 +1 x77
  +1 x86 +1 x93 +1 x98 +1 x110 +1 x114 +1 x121 +1 x131 +1 x134 +1 x138 +1 x139 +1 x146 +1 x151 +1 x155
  +1 x156 +1 x166 +1 x176 +1 x178 +1 x182 +1 x190 +1 x191 +1 x192 >= +1
 c95: +1 x2 +1 x5 +1 x16 +1 x45 +1 x48 +1 x49 +1 x68 +1 x70 +1 x94 +1 x101 +1 x107 +1 x111 +1 x112 +1 x114
  +1 x137 +1 x145 +1 x148 +1 x166 +1 x181 +1 x185 >= +1
 c96: +1 x5 +1 x7 +1 x18 +1 x26 +1 x28 +1 x33 +1 x39 +1 x43 +1 x53 +1 x70 +1 x73 +1 x79 +1 x81 +1 x92
  +1 x93 +1 x104 +1 x110 +1 x120 +1 x131 +1 x132 +1 x136 +1 x144 +1 x149 +1 x163 +1 x165 +1 x167 +1 x169
  +1 x176 +1 x186 +1 x196 +1 x197 >= +1
 c97: +1 x0 +1 x8 +1 x22 +1 x33 +1 x36 +1 x37 +1 x39 +1 x45 +1 x46 +1 x67 +1 x68 +1 x69 +1 x84 +1 x90
  +1 x95 +1 x100 +1 x106 +1 x115 +1 x116 +1 x118 +1 x143 +1 x144 +1 x155 +1 x158 +1 x161 +1 x172 >= +1
 c98: +1 x3 +1 x15 +1 x17 +1 x23 +1 x46 +1 x49 +1 x50 +1 x54 +1 x61 +1 x65 +1 x70 +1 x72 +1 x75 +1 x76
  +1 x85 +1 x94 +1 x99 +1 x107 +1 x110 +1 x116 +1 x119 +1 x120 +1 x121 +1 x133 +1 x134 +1 x140 +1 x150
  +1 x151 +1 x152 +1 x158 +1 x167 +1 x180 +1 x191 >= +1
 c99: +1 x2 +1 x15 +1 x16 +1 x19 +1 x28 +1 x30 +1 x31 +1 x32 +1 x44 +1 x49 +1 x50 +1 x55 +1 x63 +1 x64
  +1 x68 +1 x80 +1 x85 +1 x91 +1 x97 +1 x100 +1 x137 +1 x144 +1 x148 +1 x152 +1 x154 +1 x156 +1 x160 +1 x178
  +1 x184 +1 x190 +1 x191 +1 x194 >= +1
Bounds
 0 <= x0 <= 1
 0 <= x1 <= 1
 0 <= x2 <= 1
 0 <= x3 <= 1
 0 <= x4 <= 1
 0 <= x5 <= 1
 0 <= x6 <= 1
 0 <= x7 <= 1
 0 <= x8 <= 1
 0 <= x9 <= 1
 0 <= x10 <= 1
 0 <= x11 <= 1
 0 <= x12 <= 1
 0 <= x13 <= 1
 0 <= x14 <= 1
 0 <= x15 <= 1
 0 <= x16 <= 1
 0 <= x17 <= 1
 0 <= x18 <= 1
 0 <= x19 <= 1
 0 <= x20 <= 1
 0 <= x21 <= 1
 0 <= x22 <= 1
 0 <= x23 <= 1
 0 <= x24 <= 1
 0 <= x25 <= 1
 0 <= x26 <= 1
 0 <= x27 <= 1
 0 <= x28 <= 1
 0 <= x29 <= 1
 0 <= x30 <= 1
 0 <= x31 <= 1
 0 <= x32 <= 1
 0 <= x33 <= 1
 0 <= x34 <= 1
 0 <= x35 <= 1
 0 <= x36 <= 1
 0 <= x37 <= 1
 0 <= x38 <= 1
 0 <= x39 <= 1
 0 <= x40 <= 1
 0 <= x41 <= 1
 0 <= x42 <= 1
 0 <= x43 <= 1
 0 <= x44 <= 1
 0 <= x45 <= 1
 0 <= x46 <= 1
 0 <= x47 <= 1
 0 <= x48 <= 1
 0 <= x49 <= 1
 0 <= x50 <= 1
 0 <= x51 <= 1
 0 <= x52 <= 1
 0 <= x53 <= 1
 0 <= x54 <= 1
 0 <= x55 <= 1
 0 <= x56 <= 1
 0 <= x57 <= 1
 0 <= x58 <= 1
 0 <= x59 <= 1
 0 <= x60 <= 1
 0 <= x61 <= 1
 0 <= x62 <= 1
 0 <= x63 <= 1
 0 <= x64 <= 1
 0 <= x65 <= 1
 0 <= x66 <= 1
 0 <= x67 <= 1
 0 <= x68 <= 1
 0 <= x69 <= 1
 0 <= x70 <= 1
 0 <= x71 <= 1
 0 <= x72 <= 1
 0 <= x73 <= 1
 0 <= x74 <= 1
 0 <= x75 <= 1
 0 <= x76 <= 1
 0 <= x77 <= 1
 0 <= x78 <= 1
 0 <= x79 <= 1
 0 <= x80 <= 1
 0 <= x81 <= 1
 0 <= x82 <= 1
 0 <= x83 <= 1
 0 <= x84 <= 1
 0 <= x85 <= 1
 0 <= x86 <= 1
 0 <= x87 <= 1
 0 <= x88 <= 1
 0 <= x89 <= 1
 0 <= x90 <= 1
 0 <= x91 <= 1
 0 <= x92 <= 1
 0 <= x93 <= 1
 0 <= x94 <= 1
 0 <= x95 <= 1
 0 <= x96 <= 1
 0 <= x97 <= 1
 0 <= x98 <= 1
 0 <= x99 <= 1
 0 <= x100 <= 1
 0 <= x101 <= 1
 0 <= x102 <= 1
 0 <= x103 <= 1
 0 <= x104 <= 1
 0 <= x105 <= 1
 0 <= x106 <= 1
 0 <= x107 <= 1
 0 <= x108 <= 1
 0 <= x109 <= 1
 0 <= x110 <= 1
 0 <= x111 <= 1
 0 <= x112 <= 1
 0 <= x113 <= 1
 0 <= x114 <= 1
 0 <= x115 <= 1
 0 <= x116 <= 1
 0 <= x117 <= 1
 0 <= x118 <= 1
 0 <= x119 <= 1
 0 <= x120 <= 1
 0 <= x121 <= 1
 0 <= x122 <= 1
 0 <= x123 <= 1
 0 <= x124 <= 1
 0 <= x125 <= 1
 0 <= x126 <= 1
 0 <= x127 <= 1
 0 <= x128 <= 1
 0 <= x129 <= 1
 0 <= x130 <= 1
 0 <= x131 <= 1
 0 <= x132 <= 1
 0 <= x133 <= 1
 0 <= x134 <= 1
 0 <= x135 <= 1
 0 <= x136 <= 1
 0 <= x137 <= 1
 0 <= x138 <= 1
 0 <= x139 <= 1
 0 <= x140 <= 1
 0 <= x141 <= 1
 0 <= x142 <= 1
 0 <= x143 <= 1
 0 <= x144 <= 1
 0 <= x145 <= 1
 0 <= x146 <= 1
 0 <= x147 <= 1
 0 <= x148 <= 1
 0 <= x149 <= 1
 0 <= x150 <= 1
 0 <= x151 <= 1
 0 <= x152 <= 1
 0 <= x153 <= 1
 0 <= x154 <= 1
 0 <= x155 <= 1
 0 <= x156 <= 1
 0 <= x157 <= 1
 0 <= x158 <= 1
 0 <= x159 <= 1
 0 <= x160 <= 1
 0 <= x161 <= 1
 0 <= x162 <= 1
 0 <= x163 <= 1
 0 <= x164 <= 1
 0 <= x165 <= 1
 0 <= x166 <= 1
 0 <= x167 <= 1
 0 <= x168 <= 1
 0 <= x169 <= 1
 0 <= x170 <= 1
 0 <= x171 <= 1
 0 <= x172 <= 1
 0 <= x173 <= 1
 0 <= x174 <= 1
 0 <= x175 <= 1
 0 <= x176 <= 1
 0 <= x177 <= 1
 0 <= x178 <= 1
 0 <= x179 <= 1
 0 <= x180 <= 1
 0 <= x181 <= 1
 0 <= x182 <= 1
 0 <= x183 <= 1
 0 <= x184 <= 1
 0 <= x185 <= 1
 0 <= x186 <= 1
 0 <= x187 <= 1
 0 <= x188 <= 1
 0 <= x189 <= 1
 0 <= x190 <= 1
 0 <= x191 <= 1
 0 <= x192 <= 1
 0 <= x193 <= 1
 0 <= x194 <= 1
 0 <= x195 <= 1
 0 <= x196 <= 1
 0 <= x197 <= 1
 0 <= x198 <= 1
 0 <= x199 <= 1
Binaries
 x0 x1 x2 x3 x4 x5 x6 x7 x8 x9 x10 x11 x12 x13 x14 x15 x16 x17 x18 x19 x20 x21 x22 x23 x24 x25 x26 x27
 x28 x29 x30 x31 x32 x33 x34 x35 x36 x37 x38 x39 x40 x41 x42 x43 x44 x45 x46 x47 x48 x49 x50 x51 x52 x53
 x54 x55 x56 x57 x58 x59 x60 x61 x62 x63 x64 x65 x66 x67 x68 x69 x70 x71 x72 x73 x74 x75 x76 x77 x78 x79
 x80 x81 x82 x83 x84 x85 x86 x87 x88 x89 x90 x91 x92 x93 x94 x95 x96 x97 x98 x99 x100 x101 x102 x103 x104
 x105 x106 x107 x108 x109 x110 x111 x112 x113 x114 x115 x116 x117 x118 x119 x120 x121 x122 x123 x124 x125
 x126 x127 x128 x129 x130 x131 x132 x133 x134 x135 x136 x137 x138 x139 x140 x141 x142 x143 x144 x145 x146
 x147 x148 x149 x150 x151 x152 x153 x154 x155 x156 x157 x158 x159 x160 x161 x162 x163 x164 x165 x166 x167
 x168 x169 x170 x171 x172 x173 x174 x175 x176 x177 x178 x179 x180 x181 x182 x183 x184 x185 x186 x187 x188
 x189 x190 x191 x192 x193 x194 x195 x196 x197 x198 x199
End
